Cost: 436
0-17-51-3-16-63-23-56-41-42-64-22-61-28-62-1-73-33-6-0
0-26-12-58-72-39-31-10-38-65-66-59-14-19-35-7-8-46-34-67-0
0-4-52-13-57-15-5-37-20-70-60-71-36-47-48-30-74-2-68-75-0
Cost: 436
0-26-12-58-72-39-31-10-38-65-66-59-14-19-35-7-8-46-34-67-0
0-4-52-13-57-15-5-37-20-70-60-71-36-47-48-30-74-2-68-75-0
0-6-33-1-73-62-28-61-22-64-42-41-56-23-63-16-3-51-17-0
Cost: 436
0-17-51-3-16-63-23-56-41-42-64-22-61-28-62-1-73-33-6-0
0-26-12-58-72-39-31-10-38-65-66-59-14-19-35-7-8-46-34-67-0
0-4-52-13-57-15-5-37-20-70-60-71-36-47-48-30-74-2-68-75-0
Cost: 436
0-26-12-58-72-39-31-10-38-65-66-59-14-19-35-7-8-46-34-67-0
0-17-51-3-16-63-23-56-41-42-64-22-61-28-62-1-73-33-6-0
0-4-52-13-57-15-5-37-20-70-60-71-36-47-48-30-74-2-68-75-0
Cost: 436
0-75-68-2-74-30-48-47-36-71-60-70-20-37-5-15-57-13-52-4-0
0-26-12-58-72-39-31-10-38-65-66-59-14-19-35-7-8-46-34-67-0
0-6-33-73-1-62-28-61-22-64-42-41-56-23-63-16-3-51-17-0
Cost: 436
0-67-34-46-8-7-35-19-14-59-66-65-38-10-31-39-72-58-12-26-0
0-75-68-2-74-30-48-47-36-71-60-70-20-37-5-15-57-13-52-4-0
0-17-51-3-16-63-23-56-41-42-64-22-61-28-62-1-73-33-6-0
Cost: 436
0-4-52-13-57-15-5-37-20-70-60-71-36-47-48-30-74-2-68-75-0
0-6-33-1-73-62-28-61-22-64-42-41-56-23-63-16-3-51-17-0
0-67-34-46-8-7-35-19-14-59-66-65-38-10-31-39-72-58-12-26-0
Cost: 436
0-17-51-3-16-63-23-56-41-42-64-22-61-28-62-1-73-33-6-0
0-26-12-58-72-39-31-10-38-65-66-59-14-19-35-7-8-46-34-67-0
0-75-68-2-74-30-48-47-36-71-60-70-20-37-5-15-57-13-52-4-0
Cost: 436
0-67-34-46-8-7-35-19-14-59-66-65-38-10-31-39-72-58-12-26-0
0-6-33-1-73-62-28-61-22-64-42-41-56-23-63-16-3-51-17-0
0-4-52-13-57-15-5-37-20-70-60-71-36-47-48-30-74-2-68-75-0
Cost: 436
0-26-12-58-72-39-31-10-38-65-66-59-14-19-35-7-8-46-34-67-0
0-4-52-13-57-15-5-37-20-70-60-71-36-47-48-30-74-2-68-75-0
0-6-33-1-73-62-28-61-22-64-42-41-56-23-63-16-3-51-17-0
Cost: 436
0-26-12-58-72-39-31-10-38-65-66-59-14-19-35-7-8-46-34-67-0
0-6-33-1-73-62-28-61-22-64-42-41-56-23-63-16-3-51-17-0
0-4-52-13-57-15-5-37-20-70-60-71-36-47-48-30-74-2-68-75-0
Cost: 436
0-26-12-58-72-39-31-10-38-65-66-59-14-19-35-7-8-46-34-67-0
0-17-51-3-16-63-23-56-41-42-64-22-61-28-62-1-73-33-6-0
0-4-52-13-57-15-5-37-20-70-60-71-36-47-48-30-74-2-68-75-0
Cost: 436
0-4-52-13-57-15-5-37-20-70-60-71-36-47-48-30-74-2-68-75-0
0-6-33-1-73-62-28-61-22-64-42-41-56-23-63-16-3-51-17-0
0-67-34-46-8-7-35-19-14-59-66-65-38-10-31-39-72-58-12-26-0
Cost: 436
0-6-33-1-73-62-28-61-22-64-42-41-56-23-63-16-3-51-17-0
0-67-34-46-8-7-35-19-14-59-66-65-38-10-31-39-72-58-12-26-0
0-4-52-13-57-15-5-37-20-70-60-71-36-47-48-30-74-2-68-75-0
Cost: 436
0-6-33-1-73-62-28-61-22-64-42-41-56-23-63-16-3-51-17-0
0-67-34-46-8-7-35-19-14-59-66-65-38-10-31-39-72-58-12-26-0
0-4-52-13-57-15-5-37-20-70-60-71-36-47-48-30-74-2-68-75-0
Cost: 436
0-17-51-3-16-63-23-56-41-42-64-22-61-28-62-73-1-33-6-0
0-75-68-2-74-30-48-47-36-71-60-70-20-37-5-15-57-13-52-4-0
0-67-34-46-8-7-35-19-14-59-66-65-38-10-31-39-72-58-12-26-0
Cost: 436
0-67-34-46-8-7-35-19-14-59-66-65-38-10-31-39-72-58-12-26-0
0-17-51-3-16-63-23-56-41-42-64-22-61-28-62-1-73-33-6-0
0-4-52-13-57-15-5-37-20-70-60-71-36-47-48-30-74-2-68-75-0
Cost: 436
0-4-52-13-57-15-5-37-20-70-60-71-36-47-48-30-74-2-68-75-0
0-26-12-58-72-39-31-10-38-65-66-59-14-19-35-7-8-46-34-67-0
0-6-33-73-1-62-28-61-22-64-42-41-56-23-63-16-3-51-17-0
Cost: 436
0-4-52-13-57-15-5-37-20-70-60-71-36-47-48-30-74-2-68-75-0
0-26-12-58-72-39-31-10-38-65-66-59-14-19-35-7-8-46-34-67-0
0-6-33-73-1-62-28-61-22-64-42-41-56-23-63-16-3-51-17-0
Cost: 436
0-26-12-58-72-39-31-10-38-65-66-59-14-19-35-7-8-46-34-67-0
0-17-51-3-16-63-23-56-41-42-64-22-61-28-62-73-1-33-6-0
0-4-52-13-57-15-5-37-20-70-60-71-36-47-48-30-74-2-68-75-0
Cost: 436
0-26-12-58-72-39-31-10-38-65-66-59-14-19-35-7-8-46-34-67-0
0-17-51-3-16-63-23-56-41-42-64-22-61-28-62-73-1-33-6-0
0-4-52-13-57-15-5-37-20-70-60-71-36-47-48-30-74-2-68-75-0
Cost: 436
0-4-52-13-57-15-5-37-20-70-60-71-36-47-48-30-74-2-68-75-0
0-26-12-58-72-39-31-10-38-65-66-59-14-19-35-7-8-46-34-67-0
0-6-33-1-73-62-28-61-22-64-42-41-56-23-63-16-3-51-17-0
Cost: 436
0-26-12-58-72-39-31-10-38-65-66-59-14-19-35-7-8-46-34-67-0
0-17-51-3-16-63-23-56-41-42-64-22-61-28-62-73-1-33-6-0
0-4-52-13-57-15-5-37-20-70-60-71-36-47-48-30-74-2-68-75-0
Cost: 436
0-67-34-46-8-7-35-19-14-59-66-65-38-10-31-39-72-58-12-26-0
0-17-51-3-16-63-23-56-41-42-64-22-61-28-62-1-73-33-6-0
0-4-52-13-57-15-5-37-20-70-60-71-36-47-48-30-74-2-68-75-0
Cost: 436
0-4-52-13-57-15-5-37-20-70-60-71-36-47-48-30-74-2-68-75-0
0-17-51-3-16-63-23-56-41-42-64-22-61-28-62-1-73-33-6-0
0-26-12-58-72-39-31-10-38-65-66-59-14-19-35-7-8-46-34-67-0
Cost: 436
0-4-52-13-57-15-5-37-20-70-60-71-36-47-48-30-74-2-68-75-0
0-26-12-58-72-39-31-10-38-65-66-59-14-19-35-7-8-46-34-67-0
0-17-51-3-16-63-23-56-41-42-64-22-61-28-62-1-73-33-6-0
Cost: 436
0-26-12-58-72-39-31-10-38-65-66-59-14-19-35-7-8-46-34-67-0
0-17-51-3-16-63-23-56-41-42-64-22-61-28-62-73-1-33-6-0
0-75-68-2-74-30-48-47-36-71-60-70-20-37-5-15-57-13-52-4-0
Cost: 436
0-17-51-3-16-63-23-56-41-42-64-22-61-28-62-1-73-33-6-0
0-26-12-58-72-39-31-10-38-65-66-59-14-19-35-7-8-46-34-67-0
0-4-52-13-57-15-5-37-20-70-60-71-36-47-48-30-74-2-68-75-0
Cost: 436
0-17-12-58-72-39-31-10-38-65-66-59-14-35-7-8-46-34-67-0
0-75-68-2-30-74-21-47-36-71-60-70-20-37-5-15-57-13-27-52-4-0
0-51-44-3-16-63-23-56-41-42-64-22-61-28-62-1-73-33-6-0
